This is Ipopt version 3.10.0, running with linear solver ma27.

Number of nonzeros in equality constraint Jacobian...:        0
Number of nonzeros in inequality constraint Jacobian.:       48
Number of nonzeros in Lagrangian Hessian.............:        0

Total number of variables............................:        6
                     variables with only lower bounds:        0
                variables with lower and upper bounds:        6
                     variables with only upper bounds:        0
Total number of equality constraints.................:        0
Total number of inequality constraints...............:        8
        inequality constraints with only lower bounds:        0
   inequality constraints with lower and upper bounds:        0
        inequality constraints with only upper bounds:        8

iter    objective    inf_pr   inf_du lg(mu)  ||d||  lg(rg) alpha_du alpha_pr  ls
   0  7.6597333e+00 2.25e+00 1.34e+00   0.0 0.00e+00    -  0.00e+00 0.00e+00   0
   1  9.4364623e+00 1.39e+00 1.03e+01  -0.4 1.60e+00    -  5.05e-01 5.09e-01f  1
   2  9.5782200e+00 7.21e-01 5.10e+00  -0.4 1.04e+00    -  9.53e-01 5.50e-01h  1
   3  1.2722204e+01 4.84e-01 2.36e+01  -0.3 9.30e-01    -  7.02e-01 8.18e-01h  1
   4  1.2848010e+01 2.05e-01 2.17e+00  -0.5 6.82e-01    -  7.64e-01 7.40e-01f  1
   5  1.3775110e+01 9.79e-02 1.88e+00  -1.5 6.15e-01    -  8.35e-01 6.21e-01h  1
   6  1.3944707e+01 4.11e-02 3.29e+00  -1.7 8.11e-01    -  1.00e+00 5.18e-01h  1
   7  1.4001136e+01 2.53e-02 3.47e+00  -2.6 2.75e-01    -  1.00e+00 3.94e-01h  1
   8  1.4293728e+01 1.24e-02 3.92e+00  -2.7 3.69e-01    -  1.00e+00 8.66e-01h  1
   9  1.4478024e+01 1.44e-03 2.93e+00  -3.3 2.11e-01    -  1.00e+00 9.75e-01h  1
iter    objective    inf_pr   inf_du lg(mu)  ||d||  lg(rg) alpha_du alpha_pr  ls
  10  1.4498618e+01 3.19e-04 5.51e-01  -4.4 2.99e-02    -  1.00e+00 7.84e-01h  1
  11  1.4504971e+01 2.30e-05 1.70e-02  -6.1 8.86e-03    -  1.00e+00 9.97e-01h  1
  12  1.4503677e+01 4.83e-05 1.26e-02  -7.5 3.56e-04    -  1.00e+00 9.99e-01h  1

Number of Iterations....: 12

                                   (scaled)                 (unscaled)
Objective...............:   1.4503676984640705e+01    1.4503676984640705e+01
Dual infeasibility......:   1.2624822225593003e-02    1.2624822225593003e-02
Constraint violation....:   4.8256508156062571e-05    4.8256508156062571e-05
Complementarity.........:   3.1955125119365664e-08    3.1955125119365664e-08
Overall NLP error.......:   1.2624822225593003e-02    1.2624822225593003e-02


Number of objective function evaluations             = 13
Number of objective gradient evaluations             = 13
Number of equality constraint evaluations            = 0
Number of inequality constraint evaluations          = 13
Number of equality constraint Jacobian evaluations   = 0
Number of inequality constraint Jacobian evaluations = 13
Number of Lagrangian Hessian evaluations             = 0
Total CPU secs in IPOPT (w/o function evaluations)   =      0.013
Total CPU secs in NLP function evaluations           =    102.569

EXIT: Stopping optimization at current point as requested by user.
